53413
43 40 1279
40 51 1042
51 13 644
13 41 686
41 35 760
35 5 323
5 37 467
37 7 517
7 20 846
20 50 763
50 24 868
24 38 802
38 8 368
8 44 383
44 32 676
32 19 1127
19 17 1205
17 21 638
21 29 516
29 22 544
22 10 117
10 16 734
16 39 451
39 46 214
46 36 402
36 15 679
15 52 631
52 25 874
25 31 299
31 27 4460
27 1 4123
1 33 7621
33 42 4807
42 11 1343
11 45 436
45 2 787
2 14 433
14 9 471
9 12 723
12 18 768
18 4 606
4 30 380
30 47 944
47 54 491
54 34 401
34 53 396
53 23 388
23 48 890
48 49 761
49 26 560
26 55 397
55 28 487
28 6 404
6 3 385
3 43 1096
